% Logging successfully configured
%%%mzn-stat: initTime=0.042054915
%%%mzn-stat: objective=570
%%%mzn-stat: nodes=199
%%%mzn-stat: restarts=0
%%%mzn-stat: peakDepth=83
%%%mzn-stat: solveTime=0.003488635
%%%mzn-stat: variables=216
%%%mzn-stat: propagators=134
%%%mzn-stat: failures=22
%%%mzn-stat: propagations=1304
%%%mzn-stat: nogoods=22
%%%mzn-stat: numAtomicConstraintsPropagated=0
%%%mzn-stat: allDifferentNumber1TotalHallSetSize=62
%%%mzn-stat: allDifferentNumber1NumberOfConflicts=22
%%%mzn-stat: allDifferentNumber1MaxHallSetSize=6
%%%mzn-stat: allDifferentNumber1PropagationsTotal=210
%%%mzn-stat: allDifferentNumber1PropagationsThatFoundConflict=22
%%%mzn-stat: circuitNumber2PropagationsThatFoundConflict=0
%%%mzn-stat: circuitNumber2TotalFixedEdgesAtConflict=0
%%%mzn-stat: circuitNumber2NumberOfConflicts=0
%%%mzn-stat: circuitNumber2PropagationsThatPruned=5
%%%mzn-stat: circuitNumber2PropagationsTotal=119
%%%mzn-stat: AverageConflictSize=2.6363636363636362
%%%mzn-stat: NumUnitNogoodsLearned=0
%%%mzn-stat: AverageLearnedNogoodLength=2.6363636363636362
%%%mzn-stat: AverageBacktrackAmount=0
%%%mzn-stat: AverageLbd=2.6363636363636362
%%%mzn-stat: 2AutonomousSearchNumBackupCalled=68
%%%mzn-stat: 2AutonomousSearchNumPredicatesRemoved=0
%%%mzn-stat: 2AutonomousSearchNumCalls=69
%%%mzn-stat: 2AutonomousSearchNumPredicatesAdded=43
%%%mzn-stat: 2AutonomousSearchAverageSizeOfHeap=0.6231884057971014
%%%mzn-stat: 2AutonomousSearchNumAssignedPredicatesEncountered=43
%%%mzn-stat-end
maxleg = 570;
succ = array1d(1..20,[3, 12, 10, 5, 8, 7, 4, 14, 17, 20, 13, 1, 15, 18, 2, 11, 16, 19, 9, 6]);
% time elapsed: 6.11 s
----------
==========
% time elapsed: 6.11 s
%%%mzn-stat: initTime=0.042054915
%%%mzn-stat: objective=570
%%%mzn-stat: nodes=371
%%%mzn-stat: restarts=0
%%%mzn-stat: peakDepth=83
%%%mzn-stat: solveTime=0.006433173
%%%mzn-stat: variables=216
%%%mzn-stat: propagators=134
%%%mzn-stat: failures=94
%%%mzn-stat: propagations=3109
%%%mzn-stat: nogoods=94
%%%mzn-stat: numAtomicConstraintsPropagated=0
%%%mzn-stat: allDifferentNumber1TotalHallSetSize=568
%%%mzn-stat: allDifferentNumber1NumberOfConflicts=91
%%%mzn-stat: allDifferentNumber1MaxHallSetSize=20
%%%mzn-stat: allDifferentNumber1PropagationsTotal=619
%%%mzn-stat: allDifferentNumber1PropagationsThatFoundConflict=91
%%%mzn-stat: circuitNumber2PropagationsThatFoundConflict=2
%%%mzn-stat: circuitNumber2TotalFixedEdgesAtConflict=20
%%%mzn-stat: circuitNumber2NumberOfConflicts=2
%%%mzn-stat: circuitNumber2PropagationsThatPruned=32
%%%mzn-stat: circuitNumber2PropagationsTotal=325
%%%mzn-stat: AverageConflictSize=4.4787234042553195
%%%mzn-stat: NumUnitNogoodsLearned=1
%%%mzn-stat: AverageLearnedNogoodLength=4.638297872340425
%%%mzn-stat: AverageBacktrackAmount=0
%%%mzn-stat: AverageLbd=3.382978723404255
%%%mzn-stat: 2AutonomousSearchNumBackupCalled=68
%%%mzn-stat: 2AutonomousSearchNumPredicatesRemoved=0
%%%mzn-stat: 2AutonomousSearchNumCalls=69
%%%mzn-stat: 2AutonomousSearchNumPredicatesAdded=239
%%%mzn-stat: 2AutonomousSearchAverageSizeOfHeap=0.6231884057971014
%%%mzn-stat: 2AutonomousSearchNumAssignedPredicatesEncountered=43
%%%mzn-stat-end
